c "542335.clq"
p edge 204 3008
e 1 17
e 1 18
e 1 19
e 1 20
e 1 21
e 1 22
e 1 23
e 1 25
e 1 26
e 1 28
e 1 29
e 1 30
e 1 31
e 1 32
e 1 34
e 1 35
e 1 37
e 1 40
e 1 42
e 1 44
e 1 46
e 1 49
e 1 50
e 1 51
e 1 52
e 1 53
e 1 54
e 1 61
e 1 72
e 1 74
e 1 76
e 1 81
e 1 84
e 1 86
e 1 89
e 1 91
e 1 95
e 1 103
e 1 111
e 1 120
e 1 124
e 1 128
e 1 130
e 1 133
e 1 135
e 1 157
e 1 161
e 1 162
e 1 170
e 1 177
e 1 178
e 1 179
e 1 194
e 1 200
e 1 202
e 2 17
e 2 20
e 2 25
e 2 33
e 2 49
e 2 51
e 2 78
e 2 83
e 2 113
e 2 120
e 2 138
e 3 17
e 3 18
e 3 19
e 3 20
e 3 21
e 3 22
e 3 23
e 3 24
e 3 28
e 3 29
e 3 30
e 3 32
e 3 33
e 3 35
e 3 39
e 3 40
e 3 42
e 3 44
e 3 48
e 3 53
e 3 55
e 3 67
e 3 70
e 3 71
e 3 76
e 3 77
e 3 80
e 3 101
e 3 105
e 3 115
e 3 119
e 3 125
e 3 132
e 3 150
e 3 151
e 3 152
e 3 178
e 3 190
e 3 193
e 4 17
e 4 18
e 4 19
e 4 20
e 4 21
e 4 22
e 4 23
e 4 27
e 4 28
e 4 30
e 4 33
e 4 39
e 4 44
e 4 51
e 4 52
e 4 53
e 4 61
e 4 68
e 4 71
e 4 72
e 4 78
e 4 79
e 4 81
e 4 87
e 4 101
e 4 143
e 4 145
e 4 146
e 4 161
e 4 164
e 4 165
e 4 166
e 5 17
e 5 18
e 5 19
e 5 20
e 5 21
e 5 24
e 5 25
e 5 26
e 5 28
e 5 29
e 5 30
e 5 31
e 5 34
e 5 35
e 5 36
e 5 39
e 5 41
e 5 50
e 5 55
e 5 58
e 5 59
e 5 61
e 5 62
e 5 63
e 5 68
e 5 70
e 5 75
e 5 76
e 5 77
e 5 79
e 5 89
e 5 90
e 5 122
e 5 123
e 5 135
e 5 138
e 5 141
e 5 199
e 5 201
e 6 17
e 6 18
e 6 19
e 6 21
e 6 22
e 6 23
e 6 24
e 6 26
e 6 27
e 6 32
e 6 36
e 6 42
e 6 59
e 6 60
e 6 61
e 6 62
e 6 69
e 6 72
e 6 76
e 6 82
e 6 88
e 6 89
e 6 93
e 6 97
e 6 99
e 6 105
e 6 108
e 6 112
e 6 117
e 6 126
e 6 135
e 6 137
e 6 153
e 6 187
e 6 198
e 6 202
e 7 17
e 7 18
e 7 19
e 7 20
e 7 21
e 7 22
e 7 23
e 7 26
e 7 27
e 7 29
e 7 32
e 7 34
e 7 37
e 7 40
e 7 42
e 7 45
e 7 47
e 7 81
e 7 83
e 7 91
e 7 102
e 7 105
e 7 109
e 7 112
e 7 113
e 7 119
e 7 126
e 7 136
e 7 139
e 7 142
e 7 156
e 7 165
e 7 192
e 7 194
e 7 203
e 7 204
e 8 17
e 8 18
e 8 19
e 8 20
e 8 22
e 8 23
e 8 24
e 8 25
e 8 26
e 8 28
e 8 29
e 8 33
e 8 34
e 8 35
e 8 36
e 8 41
e 8 42
e 8 43
e 8 48
e 8 52
e 8 53
e 8 54
e 8 60
e 8 61
e 8 64
e 8 66
e 8 71
e 8 78
e 8 79
e 8 82
e 8 83
e 8 91
e 8 99
e 8 121
e 8 126
e 8 127
e 8 129
e 8 131
e 8 133
e 8 137
e 8 139
e 8 161
e 8 179
e 8 182
e 8 203
e 9 17
e 9 18
e 9 19
e 9 21
e 9 23
e 9 25
e 9 26
e 9 27
e 9 30
e 9 31
e 9 32
e 9 35
e 9 38
e 9 42
e 9 43
e 9 45
e 9 49
e 9 50
e 9 53
e 9 57
e 9 64
e 9 67
e 9 73
e 9 75
e 9 82
e 9 86
e 9 95
e 9 97
e 9 118
e 9 119
e 9 122
e 9 124
e 9 132
e 9 136
e 9 139
e 9 150
e 9 155
e 9 164
e 9 167
e 9 176
e 9 188
e 9 191
e 9 199
e 10 17
e 10 18
e 10 19
e 10 21
e 10 22
e 10 23
e 10 24
e 10 35
e 10 43
e 10 46
e 10 53
e 10 56
e 10 63
e 10 95
e 10 102
e 10 105
e 10 106
e 10 116
e 10 129
e 10 156
e 10 168
e 10 169
e 10 183
e 10 187
e 10 198
e 11 17
e 11 18
e 11 19
e 11 20
e 11 21
e 11 22
e 11 24
e 11 27
e 11 29
e 11 32
e 11 37
e 11 38
e 11 42
e 11 46
e 11 47
e 11 50
e 11 61
e 11 69
e 11 74
e 11 85
e 11 94
e 11 97
e 11 98
e 11 102
e 11 109
e 11 115
e 11 126
e 11 128
e 11 130
e 11 172
e 11 173
e 11 175
e 11 201
e 12 17
e 12 18
e 12 20
e 12 21
e 12 29
e 12 30
e 12 32
e 12 33
e 12 35
e 12 37
e 12 38
e 12 46
e 12 47
e 12 52
e 12 55
e 12 56
e 12 57
e 12 60
e 12 85
e 12 89
e 12 91
e 12 109
e 12 116
e 12 119
e 12 123
e 12 138
e 12 141
e 12 147
e 12 149
e 12 154
e 12 155
e 12 161
e 12 164
e 12 170
e 12 177
e 12 196
e 12 199
e 13 17
e 13 18
e 13 19
e 13 20
e 13 23
e 13 24
e 13 25
e 13 26
e 13 27
e 13 31
e 13 32
e 13 33
e 13 34
e 13 38
e 13 39
e 13 77
e 13 99
e 13 108
e 13 113
e 13 114
e 13 117
e 13 120
e 13 130
e 13 159
e 13 177
e 13 188
e 13 189
e 14 17
e 14 18
e 14 19
e 14 20
e 14 22
e 14 25
e 14 28
e 14 31
e 14 34
e 14 35
e 14 37
e 14 42
e 14 47
e 14 58
e 14 68
e 14 73
e 14 88
e 14 114
e 14 133
e 15 17
e 15 18
e 15 19
e 15 20
e 15 21
e 15 22
e 15 24
e 15 25
e 15 27
e 15 28
e 15 30
e 15 31
e 15 36
e 15 37
e 15 45
e 15 46
e 15 50
e 15 51
e 15 56
e 15 59
e 15 61
e 15 63
e 15 64
e 15 75
e 15 78
e 15 79
e 15 82
e 15 83
e 15 86
e 15 90
e 15 96
e 15 98
e 15 115
e 15 125
e 15 129
e 15 132
e 15 148
e 15 156
e 15 158
e 15 163
e 15 171
e 15 177
e 15 186
e 15 187
e 15 189
e 16 17
e 16 18
e 16 19
e 16 20
e 16 21
e 16 22
e 16 23
e 16 24
e 16 25
e 16 28
e 16 41
e 16 54
e 16 56
e 16 58
e 16 59
e 16 63
e 16 65
e 16 74
e 16 87
e 16 99
e 16 114
e 16 127
e 16 129
e 16 133
e 16 136
e 16 178
e 16 186
e 16 202
e 17 18
e 17 19
e 17 20
e 17 21
e 17 22
e 17 23
e 17 24
e 17 25
e 17 26
e 17 27
e 17 28
e 17 29
e 17 31
e 17 32
e 17 36
e 17 37
e 17 38
e 17 41
e 17 43
e 17 44
e 17 46
e 17 47
e 17 48
e 17 49
e 17 50
e 17 51
e 17 52
e 17 54
e 17 59
e 17 60
e 17 61
e 17 62
e 17 64
e 17 65
e 17 67
e 17 69
e 17 70
e 17 71
e 17 72
e 17 75
e 17 79
e 17 80
e 17 87
e 17 88
e 17 90
e 17 92
e 17 93
e 17 94
e 17 96
e 17 97
e 17 106
e 17 116
e 17 117
e 17 120
e 17 126
e 17 132
e 17 133
e 17 134
e 17 136
e 17 139
e 17 141
e 17 147
e 17 155
e 17 160
e 17 165
e 17 168
e 17 169
e 17 180
e 17 182
e 17 194
e 17 196
e 18 19
e 18 20
e 18 21
e 18 22
e 18 23
e 18 24
e 18 25
e 18 26
e 18 27
e 18 28
e 18 29
e 18 30
e 18 31
e 18 32
e 18 33
e 18 35
e 18 36
e 18 37
e 18 38
e 18 39
e 18 40
e 18 43
e 18 44
e 18 47
e 18 49
e 18 50
e 18 51
e 18 54
e 18 55
e 18 56
e 18 63
e 18 64
e 18 65
e 18 68
e 18 70
e 18 71
e 18 73
e 18 74
e 18 78
e 18 84
e 18 86
e 18 88
e 18 91
e 18 94
e 18 95
e 18 97
e 18 100
e 18 101
e 18 103
e 18 106
e 18 107
e 18 113
e 18 115
e 18 116
e 18 118
e 18 121
e 18 125
e 18 127
e 18 128
e 18 131
e 18 133
e 18 134
e 18 137
e 18 138
e 18 140
e 18 143
e 18 144
e 18 147
e 18 148
e 18 150
e 18 152
e 18 153
e 18 154
e 18 155
e 18 160
e 18 161
e 18 162
e 18 171
e 18 172
e 18 173
e 18 177
e 18 180
e 18 183
e 18 198
e 18 200
e 18 203
e 19 20
e 19 21
e 19 22
e 19 23
e 19 24
e 19 25
e 19 26
e 19 27
e 19 28
e 19 29
e 19 31
e 19 32
e 19 33
e 19 34
e 19 36
e 19 38
e 19 39
e 19 40
e 19 42
e 19 45
e 19 46
e 19 49
e 19 50
e 19 51
e 19 53
e 19 54
e 19 55
e 19 58
e 19 59
e 19 60
e 19 66
e 19 68
e 19 69
e 19 73
e 19 75
e 19 78
e 19 80
e 19 81
e 19 86
e 19 87
e 19 90
e 19 92
e 19 93
e 19 94
e 19 96
e 19 97
e 19 102
e 19 104
e 19 106
e 19 108
e 19 110
e 19 111
e 19 113
e 19 116
e 19 117
e 19 119
e 19 120
e 19 121
e 19 122
e 19 123
e 19 128
e 19 129
e 19 130
e 19 134
e 19 135
e 19 138
e 19 139
e 19 141
e 19 142
e 19 145
e 19 148
e 19 149
e 19 150
e 19 154
e 19 156
e 19 158
e 19 159
e 19 160
e 19 169
e 19 171
e 19 174
e 19 181
e 19 182
e 19 188
e 20 21
e 20 22
e 20 23
e 20 24
e 20 25
e 20 26
e 20 27
e 20 28
e 20 29
e 20 30
e 20 32
e 20 35
e 20 36
e 20 37
e 20 38
e 20 39
e 20 40
e 20 41
e 20 43
e 20 44
e 20 47
e 20 48
e 20 49
e 20 52
e 20 56
e 20 57
e 20 59
e 20 60
e 20 66
e 20 70
e 20 73
e 20 78
e 20 79
e 20 80
e 20 89
e 20 90
e 20 91
e 20 99
e 20 107
e 20 115
e 20 117
e 20 127
e 20 133
e 20 134
e 20 137
e 20 141
e 20 144
e 20 145
e 20 147
e 20 154
e 20 158
e 20 161
e 20 166
e 20 177
e 20 185
e 20 188
e 20 190
e 20 193
e 20 199
e 20 200
e 21 22
e 21 23
e 21 24
e 21 25
e 21 26
e 21 27
e 21 30
e 21 31
e 21 32
e 21 33
e 21 34
e 21 35
e 21 36
e 21 37
e 21 39
e 21 41
e 21 43
e 21 44
e 21 45
e 21 47
e 21 48
e 21 49
e 21 51
e 21 53
e 21 55
e 21 58
e 21 59
e 21 62
e 21 63
e 21 64
e 21 68
e 21 69
e 21 70
e 21 71
e 21 72
e 21 73
e 21 75
e 21 77
e 21 81
e 21 88
e 21 89
e 21 93
e 21 94
e 21 95
e 21 100
e 21 102
e 21 104
e 21 107
e 21 110
e 21 112
e 21 113
e 21 115
e 21 118
e 21 122
e 21 123
e 21 126
e 21 128
e 21 131
e 21 142
e 21 143
e 21 144
e 21 156
e 21 171
e 21 172
e 21 175
e 21 179
e 21 182
e 21 184
e 21 187
e 21 195
e 21 201
e 21 202
e 21 203
e 21 204
e 22 23
e 22 24
e 22 26
e 22 28
e 22 29
e 22 30
e 22 31
e 22 33
e 22 34
e 22 35
e 22 36
e 22 38
e 22 39
e 22 40
e 22 41
e 22 42
e 22 43
e 22 45
e 22 46
e 22 48
e 22 49
e 22 50
e 22 52
e 22 58
e 22 60
e 22 61
e 22 62
e 22 66
e 22 67
e 22 68
e 22 69
e 22 70
e 22 73
e 22 74
e 22 80
e 22 84
e 22 94
e 22 95
e 22 99
e 22 106
e 22 108
e 22 111
e 22 114
e 22 115
e 22 123
e 22 126
e 22 128
e 22 130
e 22 136
e 22 139
e 22 140
e 22 142
e 22 146
e 22 147
e 22 164
e 22 166
e 22 168
e 22 169
e 22 178
e 22 180
e 22 182
e 22 191
e 22 194
e 23 24
e 23 25
e 23 26
e 23 27
e 23 31
e 23 33
e 23 34
e 23 35
e 23 37
e 23 39
e 23 40
e 23 41
e 23 42
e 23 43
e 23 46
e 23 47
e 23 51
e 23 54
e 23 55
e 23 57
e 23 58
e 23 60
e 23 62
e 23 64
e 23 65
e 23 67
e 23 69
e 23 73
e 23 79
e 23 80
e 23 85
e 23 86
e 23 92
e 23 93
e 23 94
e 23 97
e 23 98
e 23 101
e 23 105
e 23 110
e 23 112
e 23 113
e 23 114
e 23 116
e 23 121
e 23 123
e 23 124
e 23 132
e 23 139
e 23 148
e 23 156
e 23 157
e 23 166
e 23 172
e 23 175
e 23 177
e 23 180
e 23 196
e 23 197
e 23 198
e 23 203
e 24 25
e 24 26
e 24 27
e 24 28
e 24 29
e 24 30
e 24 31
e 24 32
e 24 33
e 24 34
e 24 36
e 24 37
e 24 39
e 24 40
e 24 42
e 24 43
e 24 44
e 24 45
e 24 46
e 24 48
e 24 49
e 24 50
e 24 51
e 24 52
e 24 54
e 24 56
e 24 58
e 24 59
e 24 60
e 24 62
e 24 63
e 24 64
e 24 69
e 24 79
e 24 80
e 24 81
e 24 85
e 24 86
e 24 95
e 24 98
e 24 100
e 24 101
e 24 102
e 24 103
e 24 104
e 24 109
e 24 116
e 24 117
e 24 124
e 24 126
e 24 128
e 24 131
e 24 133
e 24 138
e 24 141
e 24 151
e 24 152
e 24 154
e 24 155
e 24 157
e 24 158
e 24 159
e 24 160
e 24 162
e 24 168
e 24 169
e 24 173
e 24 174
e 24 181
e 24 183
e 24 184
e 24 185
e 24 186
e 24 190
e 24 197
e 25 26
e 25 27
e 25 29
e 25 30
e 25 35
e 25 36
e 25 39
e 25 40
e 25 41
e 25 44
e 25 45
e 25 48
e 25 56
e 25 58
e 25 60
e 25 63
e 25 65
e 25 67
e 25 69
e 25 71
e 25 72
e 25 85
e 25 93
e 25 109
e 25 112
e 25 114
e 25 116
e 25 117
e 25 120
e 25 122
e 25 130
e 25 136
e 25 137
e 25 146
e 25 147
e 25 152
e 25 155
e 25 157
e 25 158
e 25 159
e 25 165
e 25 166
e 25 168
e 25 171
e 25 183
e 25 186
e 25 194
e 25 198
e 25 199
e 26 27
e 26 28
e 26 29
e 26 30
e 26 33
e 26 34
e 26 38
e 26 44
e 26 45
e 26 50
e 26 53
e 26 55
e 26 56
e 26 58
e 26 59
e 26 64
e 26 66
e 26 73
e 26 76
e 26 80
e 26 82
e 26 98
e 26 103
e 26 106
e 26 111
e 26 115
e 26 137
e 26 145
e 26 154
e 26 161
e 26 165
e 26 175
e 26 176
e 26 183
e 26 185
e 26 197
e 26 204
e 27 28
e 27 30
e 27 31
e 27 32
e 27 33
e 27 34
e 27 41
e 27 43
e 27 44
e 27 47
e 27 49
e 27 52
e 27 54
e 27 58
e 27 59
e 27 62
e 27 63
e 27 67
e 27 70
e 27 71
e 27 73
e 27 75
e 27 76
e 27 80
e 27 82
e 27 83
e 27 84
e 27 85
e 27 87
e 27 89
e 27 93
e 27 99
e 27 103
e 27 104
e 27 106
e 27 110
e 27 111
e 27 112
e 27 118
e 27 128
e 27 140
e 27 144
e 27 151
e 27 153
e 27 165
e 27 167
e 27 178
e 27 179
e 27 181
e 27 190
e 27 194
e 27 197
e 27 202
e 28 29
e 28 30
e 28 31
e 28 33
e 28 34
e 28 35
e 28 36
e 28 37
e 28 38
e 28 43
e 28 46
e 28 47
e 28 48
e 28 51
e 28 53
e 28 54
e 28 55
e 28 56
e 28 57
e 28 61
e 28 63
e 28 65
e 28 67
e 28 72
e 28 81
e 28 84
e 28 90
e 28 93
e 28 95
e 28 96
e 28 98
e 28 104
e 28 106
e 28 112
e 28 113
e 28 121
e 28 127
e 28 128
e 28 130
e 28 131
e 28 133
e 28 137
e 28 139
e 28 144
e 28 145
e 28 147
e 28 148
e 28 149
e 28 167
e 28 183
e 28 186
e 28 192
e 28 197
e 28 203
e 29 32
e 29 34
e 29 36
e 29 38
e 29 40
e 29 42
e 29 47
e 29 51
e 29 52
e 29 56
e 29 57
e 29 61
e 29 62
e 29 66
e 29 70
e 29 71
e 29 72
e 29 74
e 29 77
e 29 78
e 29 79
e 29 80
e 29 81
e 29 84
e 29 85
e 29 88
e 29 90
e 29 92
e 29 93
e 29 95
e 29 96
e 29 99
e 29 103
e 29 104
e 29 108
e 29 110
e 29 116
e 29 125
e 29 127
e 29 129
e 29 131
e 29 144
e 29 147
e 29 162
e 29 164
e 29 167
e 29 171
e 29 180
e 29 182
e 29 195
e 29 196
e 29 197
e 30 31
e 30 33
e 30 36
e 30 37
e 30 38
e 30 39
e 30 40
e 30 41
e 30 43
e 30 47
e 30 49
e 30 52
e 30 57
e 30 58
e 30 62
e 30 63
e 30 64
e 30 66
e 30 74
e 30 78
e 30 81
e 30 82
e 30 84
e 30 88
e 30 91
e 30 98
e 30 106
e 30 107
e 30 115
e 30 117
e 30 118
e 30 138
e 30 143
e 30 160
e 30 172
e 30 174
e 30 178
e 30 182
e 30 193
e 30 196
e 31 35
e 31 39
e 31 44
e 31 45
e 31 47
e 31 51
e 31 55
e 31 58
e 31 61
e 31 62
e 31 64
e 31 65
e 31 76
e 31 77
e 31 90
e 31 91
e 31 95
e 31 96
e 31 97
e 31 104
e 31 106
e 31 110
e 31 111
e 31 119
e 31 120
e 31 121
e 31 124
e 31 125
e 31 129
e 31 131
e 31 136
e 31 143
e 31 150
e 31 164
e 31 175
e 31 185
e 31 193
e 32 34
e 32 37
e 32 38
e 32 41
e 32 44
e 32 46
e 32 48
e 32 55
e 32 66
e 32 70
e 32 74
e 32 80
e 32 81
e 32 82
e 32 83
e 32 84
e 32 87
e 32 88
e 32 89
e 32 92
e 32 99
e 32 100
e 32 101
e 32 108
e 32 144
e 32 149
e 32 151
e 32 162
e 32 173
e 32 176
e 32 183
e 32 185
e 32 199
e 33 39
e 33 40
e 33 42
e 33 43
e 33 45
e 33 53
e 33 72
e 33 74
e 33 78
e 33 89
e 33 90
e 33 96
e 33 101
e 33 103
e 33 108
e 33 112
e 33 134
e 33 142
e 33 152
e 33 181
e 33 188
e 33 191
e 34 38
e 34 41
e 34 43
e 34 45
e 34 46
e 34 49
e 34 54
e 34 56
e 34 57
e 34 59
e 34 60
e 34 65
e 34 67
e 34 68
e 34 71
e 34 75
e 34 76
e 34 77
e 34 82
e 34 87
e 34 88
e 34 97
e 34 98
e 34 101
e 34 110
e 34 117
e 34 119
e 34 123
e 34 125
e 34 127
e 34 132
e 34 136
e 34 141
e 34 147
e 34 157
e 34 163
e 34 164
e 34 172
e 34 173
e 34 174
e 34 181
e 34 187
e 34 197
e 34 201
e 35 36
e 35 39
e 35 40
e 35 50
e 35 51
e 35 53
e 35 54
e 35 65
e 35 66
e 35 68
e 35 71
e 35 74
e 35 76
e 35 81
e 35 95
e 35 100
e 35 104
e 35 111
e 35 125
e 35 145
e 35 154
e 35 156
e 35 169
e 35 178
e 35 188
e 35 196
e 36 37
e 36 38
e 36 40
e 36 41
e 36 42
e 36 46
e 36 49
e 36 52
e 36 60
e 36 63
e 36 64
e 36 68
e 36 76
e 36 84
e 36 87
e 36 96
e 36 102
e 36 109
e 36 114
e 36 115
e 36 124
e 36 131
e 36 132
e 36 137
e 36 141
e 36 145
e 36 156
e 36 170
e 36 184
e 36 191
e 36 200
e 37 43
e 37 45
e 37 46
e 37 48
e 37 52
e 37 53
e 37 59
e 37 60
e 37 67
e 37 78
e 37 88
e 37 102
e 37 111
e 37 126
e 37 131
e 37 141
e 37 147
e 37 158
e 37 159
e 37 161
e 37 168
e 37 169
e 37 173
e 37 178
e 37 179
e 37 180
e 37 199
e 38 45
e 38 53
e 38 66
e 38 69
e 38 70
e 38 71
e 38 78
e 38 82
e 38 83
e 38 89
e 38 90
e 38 93
e 38 95
e 38 103
e 38 107
e 38 109
e 38 117
e 38 122
e 38 124
e 38 126
e 38 141
e 38 146
e 38 148
e 38 149
e 38 152
e 38 153
e 38 163
e 38 183
e 38 190
e 38 195
e 38 202
e 39 40
e 39 41
e 39 44
e 39 47
e 39 54
e 39 56
e 39 57
e 39 61
e 39 62
e 39 64
e 39 66
e 39 71
e 39 73
e 39 77
e 39 83
e 39 85
e 39 86
e 39 87
e 39 90
e 39 95
e 39 96
e 39 98
e 39 107
e 39 109
e 39 118
e 39 120
e 39 139
e 39 140
e 39 149
e 39 160
e 39 169
e 39 174
e 39 187
e 39 192
e 39 193
e 39 196
e 40 41
e 40 44
e 40 45
e 40 52
e 40 53
e 40 59
e 40 60
e 40 62
e 40 65
e 40 67
e 40 70
e 40 72
e 40 73
e 40 76
e 40 80
e 40 86
e 40 90
e 40 91
e 40 95
e 40 99
e 40 103
e 40 106
e 40 108
e 40 111
e 40 114
e 40 118
e 40 120
e 40 128
e 40 130
e 40 134
e 40 135
e 40 146
e 40 150
e 40 153
e 40 154
e 40 155
e 40 158
e 40 167
e 40 170
e 40 175
e 40 187
e 40 189
e 40 191
e 40 203
e 40 204
e 41 42
e 41 45
e 41 49
e 41 50
e 41 51
e 41 57
e 41 59
e 41 65
e 41 69
e 41 70
e 41 71
e 41 75
e 41 76
e 41 80
e 41 83
e 41 85
e 41 92
e 41 94
e 41 100
e 41 101
e 41 119
e 41 134
e 41 139
e 41 143
e 41 151
e 41 156
e 41 160
e 41 162
e 41 176
e 41 201
e 41 204
e 42 48
e 42 50
e 42 54
e 42 55
e 42 56
e 42 58
e 42 65
e 42 67
e 42 68
e 42 74
e 42 77
e 42 79
e 42 88
e 42 93
e 42 97
e 42 100
e 42 108
e 42 110
e 42 115
e 42 117
e 42 121
e 42 123
e 42 134
e 42 135
e 42 146
e 42 154
e 42 155
e 42 160
e 42 172
e 42 190
e 42 201
e 43 44
e 43 47
e 43 48
e 43 51
e 43 52
e 43 57
e 43 59
e 43 64
e 43 69
e 43 71
e 43 74
e 43 77
e 43 87
e 43 91
e 43 92
e 43 96
e 43 100
e 43 111
e 43 112
e 43 113
e 43 116
e 43 126
e 43 128
e 43 137
e 43 142
e 43 149
e 43 153
e 43 154
e 43 166
e 43 168
e 43 171
e 43 181
e 43 187
e 43 193
e 43 198
e 43 201
e 43 204
e 44 53
e 44 62
e 44 72
e 44 74
e 44 75
e 44 77
e 44 87
e 44 91
e 44 94
e 44 102
e 44 113
e 44 125
e 44 129
e 44 158
e 44 161
e 44 179
e 44 182
e 44 185
e 44 192
e 44 193
e 44 199
e 44 200
e 44 202
e 45 46
e 45 48
e 45 50
e 45 56
e 45 57
e 45 58
e 45 62
e 45 66
e 45 67
e 45 68
e 45 72
e 45 73
e 45 75
e 45 82
e 45 84
e 45 85
e 45 86
e 45 90
e 45 97
e 45 106
e 45 107
e 45 110
e 45 112
e 45 135
e 45 138
e 45 146
e 45 148
e 45 151
e 45 152
e 45 168
e 45 170
e 45 174
e 45 191
e 45 194
e 45 204
e 46 48
e 46 49
e 46 52
e 46 54
e 46 66
e 46 77
e 46 85
e 46 93
e 46 101
e 46 103
e 46 107
e 46 116
e 46 118
e 46 123
e 46 146
e 46 150
e 46 156
e 46 157
e 46 160
e 46 182
e 46 191
e 46 192
e 46 195
e 46 201
e 47 48
e 47 50
e 47 55
e 47 57
e 47 60
e 47 61
e 47 65
e 47 68
e 47 72
e 47 73
e 47 75
e 47 77
e 47 79
e 47 81
e 47 86
e 47 91
e 47 101
e 47 103
e 47 104
e 47 105
e 47 107
e 47 108
e 47 109
e 47 110
e 47 113
e 47 116
e 47 122
e 47 133
e 47 140
e 47 161
e 47 173
e 47 181
e 47 184
e 47 185
e 47 189
e 47 192
e 47 196
e 48 55
e 48 56
e 48 60
e 48 61
e 48 65
e 48 67
e 48 72
e 48 84
e 48 86
e 48 87
e 48 102
e 48 113
e 48 120
e 48 122
e 48 127
e 48 131
e 48 135
e 48 136
e 48 144
e 48 163
e 48 166
e 48 172
e 48 182
e 48 196
e 48 197
e 48 198
e 49 57
e 49 65
e 49 73
e 49 76
e 49 83
e 49 89
e 49 96
e 49 119
e 49 124
e 49 131
e 49 149
e 49 157
e 49 164
e 49 171
e 49 191
e 49 196
e 49 199
e 50 54
e 50 55
e 50 63
e 50 65
e 50 66
e 50 71
e 50 75
e 50 79
e 50 87
e 50 94
e 50 97
e 50 98
e 50 107
e 50 111
e 50 118
e 50 123
e 50 149
e 50 150
e 50 153
e 50 158
e 50 200
e 51 76
e 51 82
e 51 98
e 51 100
e 51 109
e 51 111
e 51 119
e 51 122
e 51 124
e 51 125
e 51 133
e 51 134
e 51 138
e 51 141
e 51 156
e 51 168
e 51 170
e 51 180
e 51 185
e 51 194
e 51 201
e 52 55
e 52 77
e 52 83
e 52 86
e 52 88
e 52 90
e 52 94
e 52 103
e 52 115
e 52 140
e 52 145
e 52 148
e 52 158
e 52 162
e 52 188
e 52 190
e 52 195
e 53 57
e 53 58
e 53 62
e 53 67
e 53 68
e 53 82
e 53 84
e 53 92
e 53 94
e 53 100
e 53 106
e 53 107
e 53 114
e 53 119
e 53 124
e 53 130
e 53 132
e 53 147
e 53 152
e 53 153
e 53 163
e 53 175
e 53 195
e 53 201
e 54 70
e 54 73
e 54 81
e 54 83
e 54 88
e 54 91
e 54 94
e 54 121
e 54 122
e 54 161
e 54 173
e 54 178
e 54 204
e 55 57
e 55 67
e 55 87
e 55 103
e 55 113
e 55 132
e 55 143
e 55 147
e 55 173
e 55 184
e 56 64
e 56 72
e 56 76
e 56 98
e 56 101
e 56 124
e 56 136
e 56 140
e 56 157
e 56 201
e 57 64
e 57 78
e 57 96
e 57 109
e 57 122
e 57 163
e 57 182
e 57 189
e 57 199
e 58 61
e 58 72
e 58 77
e 58 95
e 58 99
e 58 108
e 58 137
e 58 161
e 58 174
e 59 63
e 59 68
e 59 77
e 59 84
e 59 112
e 59 118
e 59 126
e 59 127
e 59 145
e 59 164
e 60 75
e 60 78
e 60 79
e 60 85
e 60 94
e 60 98
e 60 104
e 60 105
e 60 114
e 60 115
e 60 120
e 60 122
e 60 132
e 60 134
e 60 136
e 60 139
e 60 141
e 60 152
e 60 155
e 60 160
e 60 162
e 60 166
e 60 173
e 60 176
e 60 197
e 61 63
e 61 68
e 61 69
e 61 70
e 61 75
e 61 83
e 61 84
e 61 93
e 61 105
e 61 107
e 61 114
e 61 120
e 61 121
e 61 128
e 61 129
e 61 130
e 61 135
e 61 159
e 61 174
e 61 188
e 61 189
e 61 192
e 61 197
e 61 200
e 61 204
e 62 63
e 62 81
e 62 82
e 62 85
e 62 88
e 62 104
e 62 112
e 62 115
e 62 131
e 62 151
e 62 154
e 62 163
e 62 165
e 62 203
e 63 66
e 63 83
e 63 85
e 63 92
e 63 100
e 63 104
e 63 120
e 63 140
e 63 163
e 63 165
e 63 167
e 63 177
e 64 66
e 64 69
e 64 105
e 64 112
e 64 114
e 64 125
e 64 127
e 64 141
e 64 144
e 64 153
e 64 159
e 64 195
e 65 70
e 65 82
e 65 83
e 65 102
e 65 105
e 65 118
e 65 120
e 65 127
e 65 129
e 65 144
e 65 149
e 65 155
e 65 169
e 65 189
e 65 193
e 66 74
e 66 79
e 66 92
e 66 99
e 66 103
e 66 106
e 66 128
e 66 145
e 66 150
e 66 158
e 66 173
e 66 175
e 66 179
e 66 184
e 66 185
e 66 193
e 66 199
e 67 69
e 67 92
e 67 124
e 67 127
e 67 137
e 67 162
e 67 163
e 67 166
e 67 170
e 67 173
e 67 176
e 67 190
e 68 69
e 68 79
e 68 91
e 68 97
e 68 102
e 68 121
e 68 129
e 68 137
e 68 160
e 68 162
e 68 171
e 68 191
e 69 89
e 69 111
e 69 118
e 69 124
e 69 128
e 69 149
e 69 151
e 69 152
e 69 153
e 70 78
e 70 88
e 70 89
e 70 92
e 70 108
e 70 109
e 70 111
e 70 126
e 70 129
e 70 136
e 70 155
e 70 167
e 70 168
e 70 174
e 70 178
e 71 74
e 71 76
e 71 101
e 71 113
e 71 132
e 71 138
e 71 157
e 71 185
e 71 188
e 71 192
e 72 74
e 72 80
e 72 91
e 72 104
e 72 126
e 72 129
e 72 145
e 72 158
e 72 168
e 72 171
e 72 179
e 72 180
e 72 190
e 72 203
e 73 78
e 73 94
e 73 96
e 73 105
e 73 119
e 73 121
e 73 136
e 73 147
e 73 157
e 73 171
e 73 178
e 73 190
e 73 195
e 73 202
e 74 75
e 74 79
e 74 80
e 74 87
e 74 88
e 74 94
e 74 96
e 74 98
e 74 99
e 74 100
e 74 101
e 74 105
e 74 108
e 74 111
e 74 117
e 74 121
e 74 127
e 74 133
e 74 135
e 74 138
e 74 176
e 74 180
e 74 189
e 74 195
e 74 198
e 74 199
e 74 202
e 75 81
e 75 84
e 75 90
e 75 93
e 75 95
e 75 97
e 75 107
e 75 109
e 75 124
e 75 131
e 75 160
e 75 162
e 75 166
e 75 168
e 75 203
e 76 89
e 76 99
e 76 109
e 76 114
e 76 123
e 76 140
e 76 166
e 76 176
e 76 180
e 76 184
e 76 199
e 77 80
e 77 81
e 77 97
e 77 120
e 77 133
e 77 137
e 77 149
e 77 150
e 77 157
e 77 180
e 77 194
e 77 200
e 78 89
e 78 92
e 78 103
e 78 138
e 78 166
e 78 202
e 78 203
e 79 85
e 79 91
e 79 92
e 79 99
e 79 100
e 79 106
e 79 111
e 79 118
e 79 126
e 79 133
e 79 146
e 79 163
e 79 191
e 80 82
e 80 84
e 80 86
e 80 119
e 80 122
e 80 140
e 80 141
e 80 142
e 80 147
e 80 151
e 80 153
e 80 155
e 80 158
e 80 159
e 80 169
e 80 195
e 81 85
e 81 86
e 81 93
e 81 96
e 81 98
e 81 110
e 81 115
e 81 129
e 81 132
e 81 142
e 81 155
e 81 159
e 81 165
e 81 183
e 81 185
e 81 192
e 81 193
e 81 195
e 81 196
e 81 198
e 81 201
e 82 83
e 82 86
e 82 100
e 82 105
e 82 119
e 82 130
e 82 132
e 82 143
e 82 144
e 82 175
e 82 188
e 83 89
e 83 108
e 83 110
e 83 122
e 83 126
e 83 131
e 83 144
e 83 148
e 83 149
e 83 177
e 83 181
e 84 96
e 84 102
e 84 158
e 84 163
e 84 167
e 84 193
e 85 87
e 85 99
e 85 112
e 85 121
e 85 134
e 85 152
e 85 163
e 85 172
e 85 177
e 85 179
e 85 180
e 85 186
e 86 102
e 86 107
e 86 121
e 86 134
e 86 139
e 86 177
e 86 192
e 87 92
e 87 97
e 87 104
e 87 107
e 87 143
e 87 146
e 87 174
e 87 178
e 87 187
e 88 90
e 88 107
e 88 110
e 88 114
e 88 121
e 88 125
e 88 134
e 88 149
e 88 159
e 88 166
e 88 182
e 88 184
e 88 195
e 88 202
e 89 104
e 89 110
e 89 117
e 89 130
e 89 135
e 89 150
e 89 158
e 89 167
e 90 104
e 90 108
e 90 180
e 90 189
e 91 92
e 91 93
e 91 101
e 91 112
e 91 116
e 91 153
e 91 154
e 91 167
e 91 193
e 91 196
e 92 100
e 92 105
e 92 150
e 92 152
e 92 159
e 92 164
e 92 174
e 92 176
e 92 187
e 92 188
e 93 103
e 93 116
e 93 117
e 93 123
e 93 178
e 93 188
e 93 190
e 94 100
e 94 108
e 94 113
e 94 114
e 94 142
e 94 153
e 94 161
e 94 164
e 94 174
e 94 197
e 94 198
e 94 204
e 95 102
e 95 128
e 95 135
e 95 148
e 95 149
e 95 157
e 95 161
e 95 167
e 95 194
e 96 116
e 96 130
e 96 143
e 96 179
e 97 98
e 97 105
e 97 114
e 97 118
e 97 130
e 97 139
e 97 143
e 97 144
e 97 150
e 97 170
e 97 171
e 97 176
e 97 183
e 97 186
e 97 189
e 98 101
e 98 118
e 98 121
e 98 123
e 98 140
e 98 146
e 98 156
e 98 186
e 98 200
e 98 204
e 99 102
e 99 106
e 99 113
e 99 132
e 99 174
e 99 179
e 99 183
e 99 185
e 100 117
e 100 119
e 100 120
e 100 124
e 100 168
e 100 189
e 100 200
e 100 201
e 100 202
e 101 109
e 101 110
e 101 143
e 101 148
e 101 165
e 101 173
e 101 175
e 101 192
e 101 194
e 101 197
e 101 200
e 101 202
e 102 148
e 102 151
e 102 159
e 102 164
e 102 169
e 102 176
e 102 180
e 103 105
e 103 115
e 103 123
e 103 133
e 103 136
e 103 142
e 103 144
e 103 146
e 103 151
e 103 179
e 103 190
e 104 110
e 104 112
e 104 130
e 104 148
e 104 162
e 104 163
e 104 194
e 104 195
e 105 123
e 105 125
e 105 130
e 105 142
e 105 152
e 105 165
e 105 181
e 105 194
e 106 109
e 106 131
e 106 135
e 106 143
e 106 145
e 106 152
e 106 153
e 106 174
e 106 176
e 106 182
e 106 193
e 107 175
e 108 125
e 108 132
e 108 158
e 108 169
e 109 127
e 109 136
e 109 138
e 109 142
e 109 150
e 109 170
e 109 178
e 109 185
e 110 118
e 110 122
e 110 128
e 110 131
e 110 138
e 110 140
e 110 145
e 110 169
e 110 174
e 111 127
e 111 133
e 111 134
e 111 135
e 111 137
e 111 156
e 111 157
e 111 170
e 111 171
e 111 172
e 111 173
e 111 198
e 112 122
e 112 123
e 112 125
e 112 129
e 112 160
e 112 164
e 112 165
e 112 191
e 113 140
e 113 159
e 114 125
e 114 135
e 114 141
e 114 145
e 114 157
e 114 164
e 114 180
e 114 195
e 114 197
e 115 116
e 115 117
e 115 119
e 115 138
e 115 148
e 115 151
e 115 154
e 115 187
e 115 198
e 116 129
e 116 159
e 116 172
e 116 177
e 117 170
e 118 134
e 118 139
e 118 140
e 118 145
e 118 146
e 118 160
e 118 178
e 118 190
e 118 192
e 118 201
e 119 142
e 119 188
e 120 125
e 120 127
e 120 139
e 120 161
e 120 168
e 120 177
e 120 204
e 121 134
e 121 146
e 121 182
e 121 199
e 122 137
e 122 194
e 122 203
e 123 124
e 123 162
e 123 165
e 123 167
e 123 169
e 123 172
e 124 139
e 124 140
e 124 162
e 124 170
e 124 179
e 124 186
e 124 192
e 125 161
e 125 162
e 125 176
e 126 151
e 127 132
e 127 166
e 127 179
e 127 181
e 128 137
e 128 138
e 128 147
e 128 154
e 128 160
e 128 170
e 128 171
e 128 181
e 128 189
e 128 191
e 128 193
e 129 140
e 129 142
e 129 184
e 130 135
e 130 143
e 130 146
e 130 154
e 130 155
e 130 164
e 130 176
e 130 186
e 131 166
e 131 168
e 131 200
e 132 153
e 132 159
e 132 163
e 132 191
e 132 197
e 133 136
e 133 150
e 133 157
e 133 167
e 133 183
e 134 142
e 134 149
e 134 163
e 134 165
e 134 187
e 135 142
e 135 146
e 135 148
e 135 171
e 137 148
e 137 151
e 137 155
e 137 172
e 137 194
e 138 141
e 138 144
e 138 147
e 138 156
e 138 170
e 138 175
e 138 176
e 138 201
e 139 143
e 139 145
e 139 153
e 139 164
e 139 190
e 139 194
e 140 152
e 140 167
e 141 144
e 141 180
e 142 143
e 142 157
e 142 167
e 142 177
e 142 186
e 143 184
e 143 188
e 144 151
e 144 183
e 144 204
e 145 154
e 145 156
e 145 186
e 146 151
e 147 160
e 147 162
e 147 166
e 147 170
e 147 189
e 148 152
e 148 185
e 148 198
e 149 150
e 149 159
e 149 165
e 149 169
e 149 171
e 149 175
e 149 186
e 149 189
e 149 191
e 149 193
e 149 200
e 150 167
e 150 187
e 150 199
e 150 204
e 151 156
e 151 169
e 151 172
e 151 175
e 151 186
e 151 196
e 152 155
e 152 172
e 152 177
e 152 183
e 152 187
e 152 198
e 152 200
e 152 201
e 153 172
e 153 187
e 153 202
e 154 177
e 154 192
e 156 163
e 157 165
e 157 179
e 157 181
e 157 182
e 158 181
e 158 183
e 158 191
e 158 204
e 159 168
e 159 175
e 159 186
e 159 188
e 159 198
e 160 175
e 160 184
e 160 200
e 161 193
e 162 195
e 162 202
e 163 184
e 163 185
e 163 189
e 163 198
e 164 186
e 165 196
e 166 181
e 167 181
e 167 199
e 168 170
e 168 179
e 168 187
e 168 192
e 168 203
e 169 173
e 169 190
e 169 200
e 170 196
e 171 173
e 171 183
e 171 190
e 172 174
e 172 176
e 172 184
e 172 185
e 174 184
e 175 178
e 175 181
e 175 184
e 175 192
e 175 204
e 177 191
e 179 182
e 179 197
e 180 184
e 181 188
e 182 203
e 188 189
e 188 196
e 191 202
e 193 195
e 193 203
e 194 197
e 199 203
